# Solution for model r3_t27_m6_2
# Finished Task: 24 / 27
# Makespan: 754.0, Total Distance: 1247.0, Total Time: 1.1351
# R O S F
0 0 28 0.0 0.0
1 1 16 0.0 0.0
2 2 10 0.0 0.0
3 -1 -1 -1.0 -1.0
4 1 -1 725.0 754.0
5 2 -1 720.0 750.0
6 0 18 580.0 601.0
7 0 21 452.0 483.0
8 2 22 469.0 505.0
9 2 24 235.0 270.0
10 2 9 123.0 159.0
11 -1 -1 -1.0 -1.0
12 1 4 681.0 707.0
13 1 19 391.0 422.0
14 -1 -1 -1.0 -1.0
15 0 7 379.0 416.0
16 1 13 308.0 337.0
17 1 12 638.0 665.0
18 0 25 618.0 641.0
19 1 27 446.0 482.0
20 1 26 567.0 594.0
21 0 6 520.0 554.0
22 2 5 689.0 709.0
23 0 29 256.0 285.0
24 2 8 412.0 436.0
25 0 -1 721.0 741.0
26 1 17 607.0 638.0
27 1 20 514.0 541.0
28 0 23 82.0 119.0
29 0 15 312.0 349.0
